ENCUT = 520.000000
KSPACING = 0.400000
SIGMA = 0.050000
EDIFF = 1.00e-05
EDIFFG = -3.00e-02
ALGO = fast
GGA = PE
PREC = accurate
EFERMI = midgap
IBRION = 2
ISIF = 3
ISMEAR = 0
LORBIT = 11
NSW = 100
IVDW = 0
LASPH = .TRUE.
GGA_COMPAT = .FALSE.
ISPIN = 2
MAGMOM = 2*4.0000
