C 
 1.0000000000000000
     4.2546406100000000    0.0000000000000000    0.0000000000000000
     0.0000000000000000    2.4565648800000002    0.0000000000000000
    -1.3790696322762450    0.0000000000000000    3.5028300825417782
 C  
   4
Cartesian
 -0.6699289941437315  0.0000000000000000  3.5025041792308986
  3.5454999718674864  0.0000000000000000  0.0003259033108797
  1.4573913108562688  1.2282824400000001  3.5025041792308986
  1.4181796668674864  1.2282824400000001  0.0003259033108797
