Fe                                      
   1.00000000000000     
     2.4588104582329509    0.0000000000000000   -0.0000000000000000
    -1.2294052291164750    2.1293923199205920   -0.0000000000000000
     0.0000000000000000    0.0000000000000000    3.8838423682250389
  Fe            
     2
Direct
     0.3333333300000021    0.6666666699999979    0.2500000000000000
     0.6666666699999979    0.3333333300000021    0.7500000000000000
 
  0.00000000E+00  0.00000000E+00  0.00000000E+00
  0.00000000E+00  0.00000000E+00  0.00000000E+00
