C                                       
   1.00000000000000     
     4.2755534601361891    0.0000000000000000    0.0244167388591598
     0.0000000000000000    2.4646869679483214    0.0000000000000000
    -1.3659142106529312    0.0000000000000000    3.3178420754329627
  C             
     4
Direct
     0.1669494717123041    0.0000000000000000    0.9999048709890347
     0.8330505282876962    0.0000000000000000    0.0000951290109656
     0.6669494717123038    0.5000000000000000    0.9999048709890347
     0.3330505282876959    0.5000000000000000    0.0000951290109656
 
  0.00000000E+00  0.00000000E+00  0.00000000E+00
  0.00000000E+00  0.00000000E+00  0.00000000E+00
  0.00000000E+00  0.00000000E+00  0.00000000E+00
  0.00000000E+00  0.00000000E+00  0.00000000E+00
