Fe
 1.0000000000000000
     2.4341575899999999    0.0000000000000000    0.0000000000000000
    -1.2170787949999995    2.1080423097547061    0.0000000000000000
     0.0000000000000000    0.0000000000000000    3.8419344700000000
 Fe 
   2
Cartesian
 -0.0000000121707877  1.4053615468632785  0.9604836175000000
  1.2170788071707881  0.7026807628914277  2.8814508525000004
