! B3LYP def2-TZVP Opt Freq NormalPrint xyzfile 

%pal nprocs 4 end 

*xyz 0 2
C 0.0 0.0 0.0
H 1.0790 0.0 0.0
H -0.5395 -0.9344 0.000
H -0.5395 0.9344 0.000
*
