Fe
 1.0000000000000000
     2.8630355000000001    0.0000000000000000    0.0000000000000000
     0.0000000000000000    2.8630355000000001    0.0000000000000000
     0.0000000000000000    0.0000000000000000    2.8630355000000001
 Fe 
   2
Cartesian
  0.0000000000000000  0.0000000000000000  0.0000000000000000
  1.4315177500000000  1.4315177500000000  1.4315177500000000
